p cnf 376 3053
1 0
250 0
75 0
20 0
373 0
118 0
-1 -137 0
-2 -138 0
-3 -139 0
-4 -140 0
-5 -141 0
-6 -142 0
-7 -143 0
-8 -144 0
-1 -169 0
-2 -170 0
-3 -171 0
-4 -172 0
-5 -173 0
-6 -174 0
-7 -175 0
-8 -176 0
-1 -225 0
-2 -226 0
-3 -227 0
-4 -228 0
-5 -229 0
-6 -230 0
-7 -231 0
-8 -232 0
-1 -89 0
-2 -90 0
-3 -91 0
-4 -92 0
-5 -93 0
-6 -94 0
-7 -95 0
-8 -96 0
-1 -113 0
-2 -114 0
-3 -115 0
-4 -116 0
-5 -117 0
-6 -118 0
-7 -119 0
-8 -120 0
-1 -17 0
-2 -18 0
-3 -19 0
-4 -20 0
-5 -21 0
-6 -22 0
-7 -23 0
-8 -24 0
-1 -313 0
-2 -314 0
-3 -315 0
-4 -316 0
-5 -317 0
-6 -318 0
-7 -319 0
-8 -320 0
-1 -209 0
-2 -210 0
-3 -211 0
-4 -212 0
-5 -213 0
-6 -214 0
-7 -215 0
-8 -216 0
-1 -369 0
-2 -370 0
-3 -371 0
-4 -372 0
-5 -373 0
-6 -374 0
-7 -375 0
-8 -376 0
-1 -73 0
-2 -74 0
-3 -75 0
-4 -76 0
-5 -77 0
-6 -78 0
-7 -79 0
-8 -80 0
-1 -305 0
-2 -306 0
-3 -307 0
-4 -308 0
-5 -309 0
-6 -310 0
-7 -311 0
-8 -312 0
-1 -81 0
-2 -82 0
-3 -83 0
-4 -84 0
-5 -85 0
-6 -86 0
-7 -87 0
-8 -88 0
-1 -337 0
-2 -338 0
-3 -339 0
-4 -340 0
-5 -341 0
-6 -342 0
-7 -343 0
-8 -344 0
-1 -265 0
-2 -266 0
-3 -267 0
-4 -268 0
-5 -269 0
-6 -270 0
-7 -271 0
-8 -272 0
-1 -33 0
-2 -34 0
-3 -35 0
-4 -36 0
-5 -37 0
-6 -38 0
-7 -39 0
-8 -40 0
-1 -249 0
-2 -250 0
-3 -251 0
-4 -252 0
-5 -253 0
-6 -254 0
-7 -255 0
-8 -256 0
-9 -65 0
-10 -66 0
-11 -67 0
-12 -68 0
-13 -69 0
-14 -70 0
-15 -71 0
-16 -72 0
-9 -49 0
-10 -50 0
-11 -51 0
-12 -52 0
-13 -53 0
-14 -54 0
-15 -55 0
-16 -56 0
-9 -25 0
-10 -26 0
-11 -27 0
-12 -28 0
-13 -29 0
-14 -30 0
-15 -31 0
-16 -32 0
-9 -169 0
-10 -170 0
-11 -171 0
-12 -172 0
-13 -173 0
-14 -174 0
-15 -175 0
-16 -176 0
-9 -297 0
-10 -298 0
-11 -299 0
-12 -300 0
-13 -301 0
-14 -302 0
-15 -303 0
-16 -304 0
-9 -121 0
-10 -122 0
-11 -123 0
-12 -124 0
-13 -125 0
-14 -126 0
-15 -127 0
-16 -128 0
-9 -89 0
-10 -90 0
-11 -91 0
-12 -92 0
-13 -93 0
-14 -94 0
-15 -95 0
-16 -96 0
-9 -257 0
-10 -258 0
-11 -259 0
-12 -260 0
-13 -261 0
-14 -262 0
-15 -263 0
-16 -264 0
-9 -313 0
-10 -314 0
-11 -315 0
-12 -316 0
-13 -317 0
-14 -318 0
-15 -319 0
-16 -320 0
-9 -233 0
-10 -234 0
-11 -235 0
-12 -236 0
-13 -237 0
-14 -238 0
-15 -239 0
-16 -240 0
-9 -161 0
-10 -162 0
-11 -163 0
-12 -164 0
-13 -165 0
-14 -166 0
-15 -167 0
-16 -168 0
-9 -153 0
-10 -154 0
-11 -155 0
-12 -156 0
-13 -157 0
-14 -158 0
-15 -159 0
-16 -160 0
-9 -97 0
-10 -98 0
-11 -99 0
-12 -100 0
-13 -101 0
-14 -102 0
-15 -103 0
-16 -104 0
-9 -241 0
-10 -242 0
-11 -243 0
-12 -244 0
-13 -245 0
-14 -246 0
-15 -247 0
-16 -248 0
-9 -361 0
-10 -362 0
-11 -363 0
-12 -364 0
-13 -365 0
-14 -366 0
-15 -367 0
-16 -368 0
-9 -177 0
-10 -178 0
-11 -179 0
-12 -180 0
-13 -181 0
-14 -182 0
-15 -183 0
-16 -184 0
-17 -41 0
-18 -42 0
-19 -43 0
-20 -44 0
-21 -45 0
-22 -46 0
-23 -47 0
-24 -48 0
-17 -321 0
-18 -322 0
-19 -323 0
-20 -324 0
-21 -325 0
-22 -326 0
-23 -327 0
-24 -328 0
-17 -137 0
-18 -138 0
-19 -139 0
-20 -140 0
-21 -141 0
-22 -142 0
-23 -143 0
-24 -144 0
-17 -169 0
-18 -170 0
-19 -171 0
-20 -172 0
-21 -173 0
-22 -174 0
-23 -175 0
-24 -176 0
-17 -297 0
-18 -298 0
-19 -299 0
-20 -300 0
-21 -301 0
-22 -302 0
-23 -303 0
-24 -304 0
-17 -225 0
-18 -226 0
-19 -227 0
-20 -228 0
-21 -229 0
-22 -230 0
-23 -231 0
-24 -232 0
-17 -113 0
-18 -114 0
-19 -115 0
-20 -116 0
-21 -117 0
-22 -118 0
-23 -119 0
-24 -120 0
-17 -201 0
-18 -202 0
-19 -203 0
-20 -204 0
-21 -205 0
-22 -206 0
-23 -207 0
-24 -208 0
-17 -273 0
-18 -274 0
-19 -275 0
-20 -276 0
-21 -277 0
-22 -278 0
-23 -279 0
-24 -280 0
-17 -369 0
-18 -370 0
-19 -371 0
-20 -372 0
-21 -373 0
-22 -374 0
-23 -375 0
-24 -376 0
-17 -217 0
-18 -218 0
-19 -219 0
-20 -220 0
-21 -221 0
-22 -222 0
-23 -223 0
-24 -224 0
-17 -241 0
-18 -242 0
-19 -243 0
-20 -244 0
-21 -245 0
-22 -246 0
-23 -247 0
-24 -248 0
-17 -73 0
-18 -74 0
-19 -75 0
-20 -76 0
-21 -77 0
-22 -78 0
-23 -79 0
-24 -80 0
-17 -249 0
-18 -250 0
-19 -251 0
-20 -252 0
-21 -253 0
-22 -254 0
-23 -255 0
-24 -256 0
-25 -57 0
-26 -58 0
-27 -59 0
-28 -60 0
-29 -61 0
-30 -62 0
-31 -63 0
-32 -64 0
-25 -41 0
-26 -42 0
-27 -43 0
-28 -44 0
-29 -45 0
-30 -46 0
-31 -47 0
-32 -48 0
-25 -65 0
-26 -66 0
-27 -67 0
-28 -68 0
-29 -69 0
-30 -70 0
-31 -71 0
-32 -72 0
-25 -49 0
-26 -50 0
-27 -51 0
-28 -52 0
-29 -53 0
-30 -54 0
-31 -55 0
-32 -56 0
-25 -161 0
-26 -162 0
-27 -163 0
-28 -164 0
-29 -165 0
-30 -166 0
-31 -167 0
-32 -168 0
-25 -153 0
-26 -154 0
-27 -155 0
-28 -156 0
-29 -157 0
-30 -158 0
-31 -159 0
-32 -160 0
-25 -97 0
-26 -98 0
-27 -99 0
-28 -100 0
-29 -101 0
-30 -102 0
-31 -103 0
-32 -104 0
-25 -121 0
-26 -122 0
-27 -123 0
-28 -124 0
-29 -125 0
-30 -126 0
-31 -127 0
-32 -128 0
-25 -257 0
-26 -258 0
-27 -259 0
-28 -260 0
-29 -261 0
-30 -262 0
-31 -263 0
-32 -264 0
-25 -233 0
-26 -234 0
-27 -235 0
-28 -236 0
-29 -237 0
-30 -238 0
-31 -239 0
-32 -240 0
-25 -329 0
-26 -330 0
-27 -331 0
-28 -332 0
-29 -333 0
-30 -334 0
-31 -335 0
-32 -336 0
-25 -281 0
-26 -282 0
-27 -283 0
-28 -284 0
-29 -285 0
-30 -286 0
-31 -287 0
-32 -288 0
-25 -241 0
-26 -242 0
-27 -243 0
-28 -244 0
-29 -245 0
-30 -246 0
-31 -247 0
-32 -248 0
-25 -145 0
-26 -146 0
-27 -147 0
-28 -148 0
-29 -149 0
-30 -150 0
-31 -151 0
-32 -152 0
-25 -361 0
-26 -362 0
-27 -363 0
-28 -364 0
-29 -365 0
-30 -366 0
-31 -367 0
-32 -368 0
-33 -225 0
-34 -226 0
-35 -227 0
-36 -228 0
-37 -229 0
-38 -230 0
-39 -231 0
-40 -232 0
-33 -89 0
-34 -90 0
-35 -91 0
-36 -92 0
-37 -93 0
-38 -94 0
-39 -95 0
-40 -96 0
-33 -257 0
-34 -258 0
-35 -259 0
-36 -260 0
-37 -261 0
-38 -262 0
-39 -263 0
-40 -264 0
-33 -313 0
-34 -314 0
-35 -315 0
-36 -316 0
-37 -317 0
-38 -318 0
-39 -319 0
-40 -320 0
-33 -233 0
-34 -234 0
-35 -235 0
-36 -236 0
-37 -237 0
-38 -238 0
-39 -239 0
-40 -240 0
-33 -329 0
-34 -330 0
-35 -331 0
-36 -332 0
-37 -333 0
-38 -334 0
-39 -335 0
-40 -336 0
-33 -353 0
-34 -354 0
-35 -355 0
-36 -356 0
-37 -357 0
-38 -358 0
-39 -359 0
-40 -360 0
-33 -209 0
-34 -210 0
-35 -211 0
-36 -212 0
-37 -213 0
-38 -214 0
-39 -215 0
-40 -216 0
-33 -305 0
-34 -306 0
-35 -307 0
-36 -308 0
-37 -309 0
-38 -310 0
-39 -311 0
-40 -312 0
-33 -81 0
-34 -82 0
-35 -83 0
-36 -84 0
-37 -85 0
-38 -86 0
-39 -87 0
-40 -88 0
-33 -337 0
-34 -338 0
-35 -339 0
-36 -340 0
-37 -341 0
-38 -342 0
-39 -343 0
-40 -344 0
-33 -265 0
-34 -266 0
-35 -267 0
-36 -268 0
-37 -269 0
-38 -270 0
-39 -271 0
-40 -272 0
-33 -129 0
-34 -130 0
-35 -131 0
-36 -132 0
-37 -133 0
-38 -134 0
-39 -135 0
-40 -136 0
-33 -177 0
-34 -178 0
-35 -179 0
-36 -180 0
-37 -181 0
-38 -182 0
-39 -183 0
-40 -184 0
-33 -361 0
-34 -362 0
-35 -363 0
-36 -364 0
-37 -365 0
-38 -366 0
-39 -367 0
-40 -368 0
-41 -57 0
-42 -58 0
-43 -59 0
-44 -60 0
-45 -61 0
-46 -62 0
-47 -63 0
-48 -64 0
-41 -65 0
-42 -66 0
-43 -67 0
-44 -68 0
-45 -69 0
-46 -70 0
-47 -71 0
-48 -72 0
-41 -217 0
-42 -218 0
-43 -219 0
-44 -220 0
-45 -221 0
-46 -222 0
-47 -223 0
-48 -224 0
-41 -201 0
-42 -202 0
-43 -203 0
-44 -204 0
-45 -205 0
-46 -206 0
-47 -207 0
-48 -208 0
-41 -241 0
-42 -242 0
-43 -243 0
-44 -244 0
-45 -245 0
-46 -246 0
-47 -247 0
-48 -248 0
-41 -273 0
-42 -274 0
-43 -275 0
-44 -276 0
-45 -277 0
-46 -278 0
-47 -279 0
-48 -280 0
-41 -321 0
-42 -322 0
-43 -323 0
-44 -324 0
-45 -325 0
-46 -326 0
-47 -327 0
-48 -328 0
-41 -105 0
-42 -106 0
-43 -107 0
-44 -108 0
-45 -109 0
-46 -110 0
-47 -111 0
-48 -112 0
-41 -49 0
-42 -50 0
-43 -51 0
-44 -52 0
-45 -53 0
-46 -54 0
-47 -55 0
-48 -56 0
-41 -137 0
-42 -138 0
-43 -139 0
-44 -140 0
-45 -141 0
-46 -142 0
-47 -143 0
-48 -144 0
-41 -297 0
-42 -298 0
-43 -299 0
-44 -300 0
-45 -301 0
-46 -302 0
-47 -303 0
-48 -304 0
-41 -121 0
-42 -122 0
-43 -123 0
-44 -124 0
-45 -125 0
-46 -126 0
-47 -127 0
-48 -128 0
-41 -113 0
-42 -114 0
-43 -115 0
-44 -116 0
-45 -117 0
-46 -118 0
-47 -119 0
-48 -120 0
-41 -97 0
-42 -98 0
-43 -99 0
-44 -100 0
-45 -101 0
-46 -102 0
-47 -103 0
-48 -104 0
-41 -145 0
-42 -146 0
-43 -147 0
-44 -148 0
-45 -149 0
-46 -150 0
-47 -151 0
-48 -152 0
-49 -57 0
-50 -58 0
-51 -59 0
-52 -60 0
-53 -61 0
-54 -62 0
-55 -63 0
-56 -64 0
-49 -65 0
-50 -66 0
-51 -67 0
-52 -68 0
-53 -69 0
-54 -70 0
-55 -71 0
-56 -72 0
-49 -241 0
-50 -242 0
-51 -243 0
-52 -244 0
-53 -245 0
-54 -246 0
-55 -247 0
-56 -248 0
-49 -121 0
-50 -122 0
-51 -123 0
-52 -124 0
-53 -125 0
-54 -126 0
-55 -127 0
-56 -128 0
-49 -169 0
-50 -170 0
-51 -171 0
-52 -172 0
-53 -173 0
-54 -174 0
-55 -175 0
-56 -176 0
-49 -297 0
-50 -298 0
-51 -299 0
-52 -300 0
-53 -301 0
-54 -302 0
-55 -303 0
-56 -304 0
-49 -257 0
-50 -258 0
-51 -259 0
-52 -260 0
-53 -261 0
-54 -262 0
-55 -263 0
-56 -264 0
-49 -233 0
-50 -234 0
-51 -235 0
-52 -236 0
-53 -237 0
-54 -238 0
-55 -239 0
-56 -240 0
-49 -161 0
-50 -162 0
-51 -163 0
-52 -164 0
-53 -165 0
-54 -166 0
-55 -167 0
-56 -168 0
-49 -153 0
-50 -154 0
-51 -155 0
-52 -156 0
-53 -157 0
-54 -158 0
-55 -159 0
-56 -160 0
-49 -97 0
-50 -98 0
-51 -99 0
-52 -100 0
-53 -101 0
-54 -102 0
-55 -103 0
-56 -104 0
-49 -273 0
-50 -274 0
-51 -275 0
-52 -276 0
-53 -277 0
-54 -278 0
-55 -279 0
-56 -280 0
-57 -65 0
-58 -66 0
-59 -67 0
-60 -68 0
-61 -69 0
-62 -70 0
-63 -71 0
-64 -72 0
-57 -217 0
-58 -218 0
-59 -219 0
-60 -220 0
-61 -221 0
-62 -222 0
-63 -223 0
-64 -224 0
-57 -105 0
-58 -106 0
-59 -107 0
-60 -108 0
-61 -109 0
-62 -110 0
-63 -111 0
-64 -112 0
-57 -97 0
-58 -98 0
-59 -99 0
-60 -100 0
-61 -101 0
-62 -102 0
-63 -103 0
-64 -104 0
-57 -145 0
-58 -146 0
-59 -147 0
-60 -148 0
-61 -149 0
-62 -150 0
-63 -151 0
-64 -152 0
-57 -345 0
-58 -346 0
-59 -347 0
-60 -348 0
-61 -349 0
-62 -350 0
-63 -351 0
-64 -352 0
-57 -321 0
-58 -322 0
-59 -323 0
-60 -324 0
-61 -325 0
-62 -326 0
-63 -327 0
-64 -328 0
-57 -185 0
-58 -186 0
-59 -187 0
-60 -188 0
-61 -189 0
-62 -190 0
-63 -191 0
-64 -192 0
-57 -201 0
-58 -202 0
-59 -203 0
-60 -204 0
-61 -205 0
-62 -206 0
-63 -207 0
-64 -208 0
-57 -161 0
-58 -162 0
-59 -163 0
-60 -164 0
-61 -165 0
-62 -166 0
-63 -167 0
-64 -168 0
-57 -281 0
-58 -282 0
-59 -283 0
-60 -284 0
-61 -285 0
-62 -286 0
-63 -287 0
-64 -288 0
-57 -241 0
-58 -242 0
-59 -243 0
-60 -244 0
-61 -245 0
-62 -246 0
-63 -247 0
-64 -248 0
-57 -273 0
-58 -274 0
-59 -275 0
-60 -276 0
-61 -277 0
-62 -278 0
-63 -279 0
-64 -280 0
-65 -97 0
-66 -98 0
-67 -99 0
-68 -100 0
-69 -101 0
-70 -102 0
-71 -103 0
-72 -104 0
-65 -241 0
-66 -242 0
-67 -243 0
-68 -244 0
-69 -245 0
-70 -246 0
-71 -247 0
-72 -248 0
-65 -105 0
-66 -106 0
-67 -107 0
-68 -108 0
-69 -109 0
-70 -110 0
-71 -111 0
-72 -112 0
-65 -297 0
-66 -298 0
-67 -299 0
-68 -300 0
-69 -301 0
-70 -302 0
-71 -303 0
-72 -304 0
-65 -121 0
-66 -122 0
-67 -123 0
-68 -124 0
-69 -125 0
-70 -126 0
-71 -127 0
-72 -128 0
-65 -201 0
-66 -202 0
-67 -203 0
-68 -204 0
-69 -205 0
-70 -206 0
-71 -207 0
-72 -208 0
-65 -217 0
-66 -218 0
-67 -219 0
-68 -220 0
-69 -221 0
-70 -222 0
-71 -223 0
-72 -224 0
-65 -161 0
-66 -162 0
-67 -163 0
-68 -164 0
-69 -165 0
-70 -166 0
-71 -167 0
-72 -168 0
-65 -153 0
-66 -154 0
-67 -155 0
-68 -156 0
-69 -157 0
-70 -158 0
-71 -159 0
-72 -160 0
-65 -281 0
-66 -282 0
-67 -283 0
-68 -284 0
-69 -285 0
-70 -286 0
-71 -287 0
-72 -288 0
-65 -273 0
-66 -274 0
-67 -275 0
-68 -276 0
-69 -277 0
-70 -278 0
-71 -279 0
-72 -280 0
-65 -145 0
-66 -146 0
-67 -147 0
-68 -148 0
-69 -149 0
-70 -150 0
-71 -151 0
-72 -152 0
-73 -345 0
-74 -346 0
-75 -347 0
-76 -348 0
-77 -349 0
-78 -350 0
-79 -351 0
-80 -352 0
-73 -321 0
-74 -322 0
-75 -323 0
-76 -324 0
-77 -325 0
-78 -326 0
-79 -327 0
-80 -328 0
-73 -137 0
-74 -138 0
-75 -139 0
-76 -140 0
-77 -141 0
-78 -142 0
-79 -143 0
-80 -144 0
-73 -225 0
-74 -226 0
-75 -227 0
-76 -228 0
-77 -229 0
-78 -230 0
-79 -231 0
-80 -232 0
-73 -113 0
-74 -114 0
-75 -115 0
-76 -116 0
-77 -117 0
-78 -118 0
-79 -119 0
-80 -120 0
-73 -201 0
-74 -202 0
-75 -203 0
-76 -204 0
-77 -205 0
-78 -206 0
-79 -207 0
-80 -208 0
-73 -209 0
-74 -210 0
-75 -211 0
-76 -212 0
-77 -213 0
-78 -214 0
-79 -215 0
-80 -216 0
-73 -369 0
-74 -370 0
-75 -371 0
-76 -372 0
-77 -373 0
-78 -374 0
-79 -375 0
-80 -376 0
-73 -305 0
-74 -306 0
-75 -307 0
-76 -308 0
-77 -309 0
-78 -310 0
-79 -311 0
-80 -312 0
-73 -249 0
-74 -250 0
-75 -251 0
-76 -252 0
-77 -253 0
-78 -254 0
-79 -255 0
-80 -256 0
-73 -81 0
-74 -82 0
-75 -83 0
-76 -84 0
-77 -85 0
-78 -86 0
-79 -87 0
-80 -88 0
-73 -337 0
-74 -338 0
-75 -339 0
-76 -340 0
-77 -341 0
-78 -342 0
-79 -343 0
-80 -344 0
-73 -265 0
-74 -266 0
-75 -267 0
-76 -268 0
-77 -269 0
-78 -270 0
-79 -271 0
-80 -272 0
-81 -345 0
-82 -346 0
-83 -347 0
-84 -348 0
-85 -349 0
-86 -350 0
-87 -351 0
-88 -352 0
-81 -313 0
-82 -314 0
-83 -315 0
-84 -316 0
-85 -317 0
-86 -318 0
-87 -319 0
-88 -320 0
-81 -329 0
-82 -330 0
-83 -331 0
-84 -332 0
-85 -333 0
-86 -334 0
-87 -335 0
-88 -336 0
-81 -289 0
-82 -290 0
-83 -291 0
-84 -292 0
-85 -293 0
-86 -294 0
-87 -295 0
-88 -296 0
-81 -353 0
-82 -354 0
-83 -355 0
-84 -356 0
-85 -357 0
-86 -358 0
-87 -359 0
-88 -360 0
-81 -209 0
-82 -210 0
-83 -211 0
-84 -212 0
-85 -213 0
-86 -214 0
-87 -215 0
-88 -216 0
-81 -305 0
-82 -306 0
-83 -307 0
-84 -308 0
-85 -309 0
-86 -310 0
-87 -311 0
-88 -312 0
-81 -337 0
-82 -338 0
-83 -339 0
-84 -340 0
-85 -341 0
-86 -342 0
-87 -343 0
-88 -344 0
-81 -265 0
-82 -266 0
-83 -267 0
-84 -268 0
-85 -269 0
-86 -270 0
-87 -271 0
-88 -272 0
-81 -129 0
-82 -130 0
-83 -131 0
-84 -132 0
-85 -133 0
-86 -134 0
-87 -135 0
-88 -136 0
-81 -193 0
-82 -194 0
-83 -195 0
-84 -196 0
-85 -197 0
-86 -198 0
-87 -199 0
-88 -200 0
-81 -249 0
-82 -250 0
-83 -251 0
-84 -252 0
-85 -253 0
-86 -254 0
-87 -255 0
-88 -256 0
-81 -361 0
-82 -362 0
-83 -363 0
-84 -364 0
-85 -365 0
-86 -366 0
-87 -367 0
-88 -368 0
-81 -177 0
-82 -178 0
-83 -179 0
-84 -180 0
-85 -181 0
-86 -182 0
-87 -183 0
-88 -184 0
-89 -137 0
-90 -138 0
-91 -139 0
-92 -140 0
-93 -141 0
-94 -142 0
-95 -143 0
-96 -144 0
-89 -169 0
-90 -170 0
-91 -171 0
-92 -172 0
-93 -173 0
-94 -174 0
-95 -175 0
-96 -176 0
-89 -297 0
-90 -298 0
-91 -299 0
-92 -300 0
-93 -301 0
-94 -302 0
-95 -303 0
-96 -304 0
-89 -121 0
-90 -122 0
-91 -123 0
-92 -124 0
-93 -125 0
-94 -126 0
-95 -127 0
-96 -128 0
-89 -225 0
-90 -226 0
-91 -227 0
-92 -228 0
-93 -229 0
-94 -230 0
-95 -231 0
-96 -232 0
-89 -257 0
-90 -258 0
-91 -259 0
-92 -260 0
-93 -261 0
-94 -262 0
-95 -263 0
-96 -264 0
-89 -313 0
-90 -314 0
-91 -315 0
-92 -316 0
-93 -317 0
-94 -318 0
-95 -319 0
-96 -320 0
-89 -209 0
-90 -210 0
-91 -211 0
-92 -212 0
-93 -213 0
-94 -214 0
-95 -215 0
-96 -216 0
-89 -233 0
-90 -234 0
-91 -235 0
-92 -236 0
-93 -237 0
-94 -238 0
-95 -239 0
-96 -240 0
-89 -369 0
-90 -370 0
-91 -371 0
-92 -372 0
-93 -373 0
-94 -374 0
-95 -375 0
-96 -376 0
-89 -337 0
-90 -338 0
-91 -339 0
-92 -340 0
-93 -341 0
-94 -342 0
-95 -343 0
-96 -344 0
-89 -177 0
-90 -178 0
-91 -179 0
-92 -180 0
-93 -181 0
-94 -182 0
-95 -183 0
-96 -184 0
-97 -105 0
-98 -106 0
-99 -107 0
-100 -108 0
-101 -109 0
-102 -110 0
-103 -111 0
-104 -112 0
-97 -185 0
-98 -186 0
-99 -187 0
-100 -188 0
-101 -189 0
-102 -190 0
-103 -191 0
-104 -192 0
-97 -217 0
-98 -218 0
-99 -219 0
-100 -220 0
-101 -221 0
-102 -222 0
-103 -223 0
-104 -224 0
-97 -161 0
-98 -162 0
-99 -163 0
-100 -164 0
-101 -165 0
-102 -166 0
-103 -167 0
-104 -168 0
-97 -153 0
-98 -154 0
-99 -155 0
-100 -156 0
-101 -157 0
-102 -158 0
-103 -159 0
-104 -160 0
-97 -329 0
-98 -330 0
-99 -331 0
-100 -332 0
-101 -333 0
-102 -334 0
-103 -335 0
-104 -336 0
-97 -281 0
-98 -282 0
-99 -283 0
-100 -284 0
-101 -285 0
-102 -286 0
-103 -287 0
-104 -288 0
-97 -145 0
-98 -146 0
-99 -147 0
-100 -148 0
-101 -149 0
-102 -150 0
-103 -151 0
-104 -152 0
-97 -289 0
-98 -290 0
-99 -291 0
-100 -292 0
-101 -293 0
-102 -294 0
-103 -295 0
-104 -296 0
-97 -241 0
-98 -242 0
-99 -243 0
-100 -244 0
-101 -245 0
-102 -246 0
-103 -247 0
-104 -248 0
-97 -361 0
-98 -362 0
-99 -363 0
-100 -364 0
-101 -365 0
-102 -366 0
-103 -367 0
-104 -368 0
-105 -345 0
-106 -346 0
-107 -347 0
-108 -348 0
-109 -349 0
-110 -350 0
-111 -351 0
-112 -352 0
-105 -321 0
-106 -322 0
-107 -323 0
-108 -324 0
-109 -325 0
-110 -326 0
-111 -327 0
-112 -328 0
-105 -185 0
-106 -186 0
-107 -187 0
-108 -188 0
-109 -189 0
-110 -190 0
-111 -191 0
-112 -192 0
-105 -217 0
-106 -218 0
-107 -219 0
-108 -220 0
-109 -221 0
-110 -222 0
-111 -223 0
-112 -224 0
-105 -145 0
-106 -146 0
-107 -147 0
-108 -148 0
-109 -149 0
-110 -150 0
-111 -151 0
-112 -152 0
-105 -113 0
-106 -114 0
-107 -115 0
-108 -116 0
-109 -117 0
-110 -118 0
-111 -119 0
-112 -120 0
-105 -201 0
-106 -202 0
-107 -203 0
-108 -204 0
-109 -205 0
-110 -206 0
-111 -207 0
-112 -208 0
-105 -281 0
-106 -282 0
-107 -283 0
-108 -284 0
-109 -285 0
-110 -286 0
-111 -287 0
-112 -288 0
-105 -289 0
-106 -290 0
-107 -291 0
-108 -292 0
-109 -293 0
-110 -294 0
-111 -295 0
-112 -296 0
-105 -265 0
-106 -266 0
-107 -267 0
-108 -268 0
-109 -269 0
-110 -270 0
-111 -271 0
-112 -272 0
-105 -193 0
-106 -194 0
-107 -195 0
-108 -196 0
-109 -197 0
-110 -198 0
-111 -199 0
-112 -200 0
-105 -249 0
-106 -250 0
-107 -251 0
-108 -252 0
-109 -253 0
-110 -254 0
-111 -255 0
-112 -256 0
-113 -345 0
-114 -346 0
-115 -347 0
-116 -348 0
-117 -349 0
-118 -350 0
-119 -351 0
-120 -352 0
-113 -321 0
-114 -322 0
-115 -323 0
-116 -324 0
-117 -325 0
-118 -326 0
-119 -327 0
-120 -328 0
-113 -137 0
-114 -138 0
-115 -139 0
-116 -140 0
-117 -141 0
-118 -142 0
-119 -143 0
-120 -144 0
-113 -225 0
-114 -226 0
-115 -227 0
-116 -228 0
-117 -229 0
-118 -230 0
-119 -231 0
-120 -232 0
-113 -201 0
-114 -202 0
-115 -203 0
-116 -204 0
-117 -205 0
-118 -206 0
-119 -207 0
-120 -208 0
-113 -369 0
-114 -370 0
-115 -371 0
-116 -372 0
-117 -373 0
-118 -374 0
-119 -375 0
-120 -376 0
-113 -249 0
-114 -250 0
-115 -251 0
-116 -252 0
-117 -253 0
-118 -254 0
-119 -255 0
-120 -256 0
-113 -217 0
-114 -218 0
-115 -219 0
-116 -220 0
-117 -221 0
-118 -222 0
-119 -223 0
-120 -224 0
-113 -273 0
-114 -274 0
-115 -275 0
-116 -276 0
-117 -277 0
-118 -278 0
-119 -279 0
-120 -280 0
-113 -305 0
-114 -306 0
-115 -307 0
-116 -308 0
-117 -309 0
-118 -310 0
-119 -311 0
-120 -312 0
-113 -265 0
-114 -266 0
-115 -267 0
-116 -268 0
-117 -269 0
-118 -270 0
-119 -271 0
-120 -272 0
-121 -137 0
-122 -138 0
-123 -139 0
-124 -140 0
-125 -141 0
-126 -142 0
-127 -143 0
-128 -144 0
-121 -169 0
-122 -170 0
-123 -171 0
-124 -172 0
-125 -173 0
-126 -174 0
-127 -175 0
-128 -176 0
-121 -297 0
-122 -298 0
-123 -299 0
-124 -300 0
-125 -301 0
-126 -302 0
-127 -303 0
-128 -304 0
-121 -257 0
-122 -258 0
-123 -259 0
-124 -260 0
-125 -261 0
-126 -262 0
-127 -263 0
-128 -264 0
-121 -241 0
-122 -242 0
-123 -243 0
-124 -244 0
-125 -245 0
-126 -246 0
-127 -247 0
-128 -248 0
-121 -225 0
-122 -226 0
-123 -227 0
-124 -228 0
-125 -229 0
-126 -230 0
-127 -231 0
-128 -232 0
-121 -313 0
-122 -314 0
-123 -315 0
-124 -316 0
-125 -317 0
-126 -318 0
-127 -319 0
-128 -320 0
-121 -233 0
-122 -234 0
-123 -235 0
-124 -236 0
-125 -237 0
-126 -238 0
-127 -239 0
-128 -240 0
-121 -153 0
-122 -154 0
-123 -155 0
-124 -156 0
-125 -157 0
-126 -158 0
-127 -159 0
-128 -160 0
-121 -273 0
-122 -274 0
-123 -275 0
-124 -276 0
-125 -277 0
-126 -278 0
-127 -279 0
-128 -280 0
-129 -313 0
-130 -314 0
-131 -315 0
-132 -316 0
-133 -317 0
-134 -318 0
-135 -319 0
-136 -320 0
-129 -233 0
-130 -234 0
-131 -235 0
-132 -236 0
-133 -237 0
-134 -238 0
-135 -239 0
-136 -240 0
-129 -161 0
-130 -162 0
-131 -163 0
-132 -164 0
-133 -165 0
-134 -166 0
-135 -167 0
-136 -168 0
-129 -153 0
-130 -154 0
-131 -155 0
-132 -156 0
-133 -157 0
-134 -158 0
-135 -159 0
-136 -160 0
-129 -329 0
-130 -330 0
-131 -331 0
-132 -332 0
-133 -333 0
-134 -334 0
-135 -335 0
-136 -336 0
-129 -281 0
-130 -282 0
-131 -283 0
-132 -284 0
-133 -285 0
-134 -286 0
-135 -287 0
-136 -288 0
-129 -289 0
-130 -290 0
-131 -291 0
-132 -292 0
-133 -293 0
-134 -294 0
-135 -295 0
-136 -296 0
-129 -353 0
-130 -354 0
-131 -355 0
-132 -356 0
-133 -357 0
-134 -358 0
-135 -359 0
-136 -360 0
-129 -209 0
-130 -210 0
-131 -211 0
-132 -212 0
-133 -213 0
-134 -214 0
-135 -215 0
-136 -216 0
-129 -305 0
-130 -306 0
-131 -307 0
-132 -308 0
-133 -309 0
-134 -310 0
-135 -311 0
-136 -312 0
-129 -337 0
-130 -338 0
-131 -339 0
-132 -340 0
-133 -341 0
-134 -342 0
-135 -343 0
-136 -344 0
-129 -265 0
-130 -266 0
-131 -267 0
-132 -268 0
-133 -269 0
-134 -270 0
-135 -271 0
-136 -272 0
-129 -193 0
-130 -194 0
-131 -195 0
-132 -196 0
-133 -197 0
-134 -198 0
-135 -199 0
-136 -200 0
-129 -361 0
-130 -362 0
-131 -363 0
-132 -364 0
-133 -365 0
-134 -366 0
-135 -367 0
-136 -368 0
-129 -177 0
-130 -178 0
-131 -179 0
-132 -180 0
-133 -181 0
-134 -182 0
-135 -183 0
-136 -184 0
-137 -169 0
-138 -170 0
-139 -171 0
-140 -172 0
-141 -173 0
-142 -174 0
-143 -175 0
-144 -176 0
-137 -297 0
-138 -298 0
-139 -299 0
-140 -300 0
-141 -301 0
-142 -302 0
-143 -303 0
-144 -304 0
-137 -225 0
-138 -226 0
-139 -227 0
-140 -228 0
-141 -229 0
-142 -230 0
-143 -231 0
-144 -232 0
-137 -273 0
-138 -274 0
-139 -275 0
-140 -276 0
-141 -277 0
-142 -278 0
-143 -279 0
-144 -280 0
-137 -369 0
-138 -370 0
-139 -371 0
-140 -372 0
-141 -373 0
-142 -374 0
-143 -375 0
-144 -376 0
-137 -201 0
-138 -202 0
-139 -203 0
-140 -204 0
-141 -205 0
-142 -206 0
-143 -207 0
-144 -208 0
-137 -257 0
-138 -258 0
-139 -259 0
-140 -260 0
-141 -261 0
-142 -262 0
-143 -263 0
-144 -264 0
-137 -241 0
-138 -242 0
-139 -243 0
-140 -244 0
-141 -245 0
-142 -246 0
-143 -247 0
-144 -248 0
-137 -209 0
-138 -210 0
-139 -211 0
-140 -212 0
-141 -213 0
-142 -214 0
-143 -215 0
-144 -216 0
-145 -345 0
-146 -346 0
-147 -347 0
-148 -348 0
-149 -349 0
-150 -350 0
-151 -351 0
-152 -352 0
-145 -321 0
-146 -322 0
-147 -323 0
-148 -324 0
-149 -325 0
-150 -326 0
-151 -327 0
-152 -328 0
-145 -185 0
-146 -186 0
-147 -187 0
-148 -188 0
-149 -189 0
-150 -190 0
-151 -191 0
-152 -192 0
-145 -217 0
-146 -218 0
-147 -219 0
-148 -220 0
-149 -221 0
-150 -222 0
-151 -223 0
-152 -224 0
-145 -161 0
-146 -162 0
-147 -163 0
-148 -164 0
-149 -165 0
-150 -166 0
-151 -167 0
-152 -168 0
-145 -329 0
-146 -330 0
-147 -331 0
-148 -332 0
-149 -333 0
-150 -334 0
-151 -335 0
-152 -336 0
-145 -281 0
-146 -282 0
-147 -283 0
-148 -284 0
-149 -285 0
-150 -286 0
-151 -287 0
-152 -288 0
-145 -289 0
-146 -290 0
-147 -291 0
-148 -292 0
-149 -293 0
-150 -294 0
-151 -295 0
-152 -296 0
-145 -193 0
-146 -194 0
-147 -195 0
-148 -196 0
-149 -197 0
-150 -198 0
-151 -199 0
-152 -200 0
-153 -257 0
-154 -258 0
-155 -259 0
-156 -260 0
-157 -261 0
-158 -262 0
-159 -263 0
-160 -264 0
-153 -313 0
-154 -314 0
-155 -315 0
-156 -316 0
-157 -317 0
-158 -318 0
-159 -319 0
-160 -320 0
-153 -233 0
-154 -234 0
-155 -235 0
-156 -236 0
-157 -237 0
-158 -238 0
-159 -239 0
-160 -240 0
-153 -161 0
-154 -162 0
-155 -163 0
-156 -164 0
-157 -165 0
-158 -166 0
-159 -167 0
-160 -168 0
-153 -361 0
-154 -362 0
-155 -363 0
-156 -364 0
-157 -365 0
-158 -366 0
-159 -367 0
-160 -368 0
-153 -329 0
-154 -330 0
-155 -331 0
-156 -332 0
-157 -333 0
-158 -334 0
-159 -335 0
-160 -336 0
-153 -281 0
-154 -282 0
-155 -283 0
-156 -284 0
-157 -285 0
-158 -286 0
-159 -287 0
-160 -288 0
-153 -177 0
-154 -178 0
-155 -179 0
-156 -180 0
-157 -181 0
-158 -182 0
-159 -183 0
-160 -184 0
-161 -185 0
-162 -186 0
-163 -187 0
-164 -188 0
-165 -189 0
-166 -190 0
-167 -191 0
-168 -192 0
-161 -233 0
-162 -234 0
-163 -235 0
-164 -236 0
-165 -237 0
-166 -238 0
-167 -239 0
-168 -240 0
-161 -329 0
-162 -330 0
-163 -331 0
-164 -332 0
-165 -333 0
-166 -334 0
-167 -335 0
-168 -336 0
-161 -281 0
-162 -282 0
-163 -283 0
-164 -284 0
-165 -285 0
-166 -286 0
-167 -287 0
-168 -288 0
-161 -361 0
-162 -362 0
-163 -363 0
-164 -364 0
-165 -365 0
-166 -366 0
-167 -367 0
-168 -368 0
-161 -289 0
-162 -290 0
-163 -291 0
-164 -292 0
-165 -293 0
-166 -294 0
-167 -295 0
-168 -296 0
-161 -353 0
-162 -354 0
-163 -355 0
-164 -356 0
-165 -357 0
-166 -358 0
-167 -359 0
-168 -360 0
-161 -177 0
-162 -178 0
-163 -179 0
-164 -180 0
-165 -181 0
-166 -182 0
-167 -183 0
-168 -184 0
-169 -297 0
-170 -298 0
-171 -299 0
-172 -300 0
-173 -301 0
-174 -302 0
-175 -303 0
-176 -304 0
-169 -225 0
-170 -226 0
-171 -227 0
-172 -228 0
-173 -229 0
-174 -230 0
-175 -231 0
-176 -232 0
-169 -257 0
-170 -258 0
-171 -259 0
-172 -260 0
-173 -261 0
-174 -262 0
-175 -263 0
-176 -264 0
-169 -313 0
-170 -314 0
-171 -315 0
-172 -316 0
-173 -317 0
-174 -318 0
-175 -319 0
-176 -320 0
-169 -233 0
-170 -234 0
-171 -235 0
-172 -236 0
-173 -237 0
-174 -238 0
-175 -239 0
-176 -240 0
-169 -241 0
-170 -242 0
-171 -243 0
-172 -244 0
-173 -245 0
-174 -246 0
-175 -247 0
-176 -248 0
-169 -209 0
-170 -210 0
-171 -211 0
-172 -212 0
-173 -213 0
-174 -214 0
-175 -215 0
-176 -216 0
-169 -273 0
-170 -274 0
-171 -275 0
-172 -276 0
-173 -277 0
-174 -278 0
-175 -279 0
-176 -280 0
-169 -369 0
-170 -370 0
-171 -371 0
-172 -372 0
-173 -373 0
-174 -374 0
-175 -375 0
-176 -376 0
-177 -257 0
-178 -258 0
-179 -259 0
-180 -260 0
-181 -261 0
-182 -262 0
-183 -263 0
-184 -264 0
-177 -313 0
-178 -314 0
-179 -315 0
-180 -316 0
-181 -317 0
-182 -318 0
-183 -319 0
-184 -320 0
-177 -233 0
-178 -234 0
-179 -235 0
-180 -236 0
-181 -237 0
-182 -238 0
-183 -239 0
-184 -240 0
-177 -329 0
-178 -330 0
-179 -331 0
-180 -332 0
-181 -333 0
-182 -334 0
-183 -335 0
-184 -336 0
-177 -353 0
-178 -354 0
-179 -355 0
-180 -356 0
-181 -357 0
-182 -358 0
-183 -359 0
-184 -360 0
-177 -209 0
-178 -210 0
-179 -211 0
-180 -212 0
-181 -213 0
-182 -214 0
-183 -215 0
-184 -216 0
-177 -337 0
-178 -338 0
-179 -339 0
-180 -340 0
-181 -341 0
-182 -342 0
-183 -343 0
-184 -344 0
-177 -361 0
-178 -362 0
-179 -363 0
-180 -364 0
-181 -365 0
-182 -366 0
-183 -367 0
-184 -368 0
-185 -345 0
-186 -346 0
-187 -347 0
-188 -348 0
-189 -349 0
-190 -350 0
-191 -351 0
-192 -352 0
-185 -321 0
-186 -322 0
-187 -323 0
-188 -324 0
-189 -325 0
-190 -326 0
-191 -327 0
-192 -328 0
-185 -289 0
-186 -290 0
-187 -291 0
-188 -292 0
-189 -293 0
-190 -294 0
-191 -295 0
-192 -296 0
-185 -281 0
-186 -282 0
-187 -283 0
-188 -284 0
-189 -285 0
-190 -286 0
-191 -287 0
-192 -288 0
-185 -193 0
-186 -194 0
-187 -195 0
-188 -196 0
-189 -197 0
-190 -198 0
-191 -199 0
-192 -200 0
-185 -217 0
-186 -218 0
-187 -219 0
-188 -220 0
-189 -221 0
-190 -222 0
-191 -223 0
-192 -224 0
-185 -329 0
-186 -330 0
-187 -331 0
-188 -332 0
-189 -333 0
-190 -334 0
-191 -335 0
-192 -336 0
-185 -353 0
-186 -354 0
-187 -355 0
-188 -356 0
-189 -357 0
-190 -358 0
-191 -359 0
-192 -360 0
-185 -265 0
-186 -266 0
-187 -267 0
-188 -268 0
-189 -269 0
-190 -270 0
-191 -271 0
-192 -272 0
-185 -249 0
-186 -250 0
-187 -251 0
-188 -252 0
-189 -253 0
-190 -254 0
-191 -255 0
-192 -256 0
-193 -345 0
-194 -346 0
-195 -347 0
-196 -348 0
-197 -349 0
-198 -350 0
-199 -351 0
-200 -352 0
-193 -321 0
-194 -322 0
-195 -323 0
-196 -324 0
-197 -325 0
-198 -326 0
-199 -327 0
-200 -328 0
-193 -329 0
-194 -330 0
-195 -331 0
-196 -332 0
-197 -333 0
-198 -334 0
-199 -335 0
-200 -336 0
-193 -281 0
-194 -282 0
-195 -283 0
-196 -284 0
-197 -285 0
-198 -286 0
-199 -287 0
-200 -288 0
-193 -289 0
-194 -290 0
-195 -291 0
-196 -292 0
-197 -293 0
-198 -294 0
-199 -295 0
-200 -296 0
-193 -353 0
-194 -354 0
-195 -355 0
-196 -356 0
-197 -357 0
-198 -358 0
-199 -359 0
-200 -360 0
-193 -305 0
-194 -306 0
-195 -307 0
-196 -308 0
-197 -309 0
-198 -310 0
-199 -311 0
-200 -312 0
-193 -265 0
-194 -266 0
-195 -267 0
-196 -268 0
-197 -269 0
-198 -270 0
-199 -271 0
-200 -272 0
-193 -249 0
-194 -250 0
-195 -251 0
-196 -252 0
-197 -253 0
-198 -254 0
-199 -255 0
-200 -256 0
-201 -345 0
-202 -346 0
-203 -347 0
-204 -348 0
-205 -349 0
-206 -350 0
-207 -351 0
-208 -352 0
-201 -321 0
-202 -322 0
-203 -323 0
-204 -324 0
-205 -325 0
-206 -326 0
-207 -327 0
-208 -328 0
-201 -297 0
-202 -298 0
-203 -299 0
-204 -300 0
-205 -301 0
-206 -302 0
-207 -303 0
-208 -304 0
-201 -217 0
-202 -218 0
-203 -219 0
-204 -220 0
-205 -221 0
-206 -222 0
-207 -223 0
-208 -224 0
-201 -273 0
-202 -274 0
-203 -275 0
-204 -276 0
-205 -277 0
-206 -278 0
-207 -279 0
-208 -280 0
-201 -241 0
-202 -242 0
-203 -243 0
-204 -244 0
-205 -245 0
-206 -246 0
-207 -247 0
-208 -248 0
-201 -369 0
-202 -370 0
-203 -371 0
-204 -372 0
-205 -373 0
-206 -374 0
-207 -375 0
-208 -376 0
-201 -249 0
-202 -250 0
-203 -251 0
-204 -252 0
-205 -253 0
-206 -254 0
-207 -255 0
-208 -256 0
-209 -225 0
-210 -226 0
-211 -227 0
-212 -228 0
-213 -229 0
-214 -230 0
-215 -231 0
-216 -232 0
-209 -257 0
-210 -258 0
-211 -259 0
-212 -260 0
-213 -261 0
-214 -262 0
-215 -263 0
-216 -264 0
-209 -313 0
-210 -314 0
-211 -315 0
-212 -316 0
-213 -317 0
-214 -318 0
-215 -319 0
-216 -320 0
-209 -233 0
-210 -234 0
-211 -235 0
-212 -236 0
-213 -237 0
-214 -238 0
-215 -239 0
-216 -240 0
-209 -337 0
-210 -338 0
-211 -339 0
-212 -340 0
-213 -341 0
-214 -342 0
-215 -343 0
-216 -344 0
-209 -369 0
-210 -370 0
-211 -371 0
-212 -372 0
-213 -373 0
-214 -374 0
-215 -375 0
-216 -376 0
-209 -305 0
-210 -306 0
-211 -307 0
-212 -308 0
-213 -309 0
-214 -310 0
-215 -311 0
-216 -312 0
-217 -345 0
-218 -346 0
-219 -347 0
-220 -348 0
-221 -349 0
-222 -350 0
-223 -351 0
-224 -352 0
-217 -321 0
-218 -322 0
-219 -323 0
-220 -324 0
-221 -325 0
-222 -326 0
-223 -327 0
-224 -328 0
-217 -241 0
-218 -242 0
-219 -243 0
-220 -244 0
-221 -245 0
-222 -246 0
-223 -247 0
-224 -248 0
-217 -273 0
-218 -274 0
-219 -275 0
-220 -276 0
-221 -277 0
-222 -278 0
-223 -279 0
-224 -280 0
-217 -249 0
-218 -250 0
-219 -251 0
-220 -252 0
-221 -253 0
-222 -254 0
-223 -255 0
-224 -256 0
-225 -297 0
-226 -298 0
-227 -299 0
-228 -300 0
-229 -301 0
-230 -302 0
-231 -303 0
-232 -304 0
-225 -369 0
-226 -370 0
-227 -371 0
-228 -372 0
-229 -373 0
-230 -374 0
-231 -375 0
-232 -376 0
-225 -257 0
-226 -258 0
-227 -259 0
-228 -260 0
-229 -261 0
-230 -262 0
-231 -263 0
-232 -264 0
-225 -313 0
-226 -314 0
-227 -315 0
-228 -316 0
-229 -317 0
-230 -318 0
-231 -319 0
-232 -320 0
-225 -273 0
-226 -274 0
-227 -275 0
-228 -276 0
-229 -277 0
-230 -278 0
-231 -279 0
-232 -280 0
-225 -305 0
-226 -306 0
-227 -307 0
-228 -308 0
-229 -309 0
-230 -310 0
-231 -311 0
-232 -312 0
-225 -337 0
-226 -338 0
-227 -339 0
-228 -340 0
-229 -341 0
-230 -342 0
-231 -343 0
-232 -344 0
-233 -257 0
-234 -258 0
-235 -259 0
-236 -260 0
-237 -261 0
-238 -262 0
-239 -263 0
-240 -264 0
-233 -313 0
-234 -314 0
-235 -315 0
-236 -316 0
-237 -317 0
-238 -318 0
-239 -319 0
-240 -320 0
-233 -361 0
-234 -362 0
-235 -363 0
-236 -364 0
-237 -365 0
-238 -366 0
-239 -367 0
-240 -368 0
-233 -329 0
-234 -330 0
-235 -331 0
-236 -332 0
-237 -333 0
-238 -334 0
-239 -335 0
-240 -336 0
-241 -297 0
-242 -298 0
-243 -299 0
-244 -300 0
-245 -301 0
-246 -302 0
-247 -303 0
-248 -304 0
-241 -257 0
-242 -258 0
-243 -259 0
-244 -260 0
-245 -261 0
-246 -262 0
-247 -263 0
-248 -264 0
-241 -273 0
-242 -274 0
-243 -275 0
-244 -276 0
-245 -277 0
-246 -278 0
-247 -279 0
-248 -280 0
-249 -345 0
-250 -346 0
-251 -347 0
-252 -348 0
-253 -349 0
-254 -350 0
-255 -351 0
-256 -352 0
-249 -321 0
-250 -322 0
-251 -323 0
-252 -324 0
-253 -325 0
-254 -326 0
-255 -327 0
-256 -328 0
-249 -353 0
-250 -354 0
-251 -355 0
-252 -356 0
-253 -357 0
-254 -358 0
-255 -359 0
-256 -360 0
-249 -369 0
-250 -370 0
-251 -371 0
-252 -372 0
-253 -373 0
-254 -374 0
-255 -375 0
-256 -376 0
-249 -305 0
-250 -306 0
-251 -307 0
-252 -308 0
-253 -309 0
-254 -310 0
-255 -311 0
-256 -312 0
-249 -337 0
-250 -338 0
-251 -339 0
-252 -340 0
-253 -341 0
-254 -342 0
-255 -343 0
-256 -344 0
-249 -265 0
-250 -266 0
-251 -267 0
-252 -268 0
-253 -269 0
-254 -270 0
-255 -271 0
-256 -272 0
-257 -297 0
-258 -298 0
-259 -299 0
-260 -300 0
-261 -301 0
-262 -302 0
-263 -303 0
-264 -304 0
-257 -313 0
-258 -314 0
-259 -315 0
-260 -316 0
-261 -317 0
-262 -318 0
-263 -319 0
-264 -320 0
-257 -361 0
-258 -362 0
-259 -363 0
-260 -364 0
-261 -365 0
-262 -366 0
-263 -367 0
-264 -368 0
-265 -345 0
-266 -346 0
-267 -347 0
-268 -348 0
-269 -349 0
-270 -350 0
-271 -351 0
-272 -352 0
-265 -321 0
-266 -322 0
-267 -323 0
-268 -324 0
-269 -325 0
-270 -326 0
-271 -327 0
-272 -328 0
-265 -329 0
-266 -330 0
-267 -331 0
-268 -332 0
-269 -333 0
-270 -334 0
-271 -335 0
-272 -336 0
-265 -289 0
-266 -290 0
-267 -291 0
-268 -292 0
-269 -293 0
-270 -294 0
-271 -295 0
-272 -296 0
-265 -353 0
-266 -354 0
-267 -355 0
-268 -356 0
-269 -357 0
-270 -358 0
-271 -359 0
-272 -360 0
-265 -305 0
-266 -306 0
-267 -307 0
-268 -308 0
-269 -309 0
-270 -310 0
-271 -311 0
-272 -312 0
-265 -337 0
-266 -338 0
-267 -339 0
-268 -340 0
-269 -341 0
-270 -342 0
-271 -343 0
-272 -344 0
-273 -321 0
-274 -322 0
-275 -323 0
-276 -324 0
-277 -325 0
-278 -326 0
-279 -327 0
-280 -328 0
-273 -297 0
-274 -298 0
-275 -299 0
-276 -300 0
-277 -301 0
-278 -302 0
-279 -303 0
-280 -304 0
-273 -369 0
-274 -370 0
-275 -371 0
-276 -372 0
-277 -373 0
-278 -374 0
-279 -375 0
-280 -376 0
-281 -345 0
-282 -346 0
-283 -347 0
-284 -348 0
-285 -349 0
-286 -350 0
-287 -351 0
-288 -352 0
-281 -329 0
-282 -330 0
-283 -331 0
-284 -332 0
-285 -333 0
-286 -334 0
-287 -335 0
-288 -336 0
-281 -289 0
-282 -290 0
-283 -291 0
-284 -292 0
-285 -293 0
-286 -294 0
-287 -295 0
-288 -296 0
-281 -353 0
-282 -354 0
-283 -355 0
-284 -356 0
-285 -357 0
-286 -358 0
-287 -359 0
-288 -360 0
-281 -361 0
-282 -362 0
-283 -363 0
-284 -364 0
-285 -365 0
-286 -366 0
-287 -367 0
-288 -368 0
-289 -345 0
-290 -346 0
-291 -347 0
-292 -348 0
-293 -349 0
-294 -350 0
-295 -351 0
-296 -352 0
-289 -329 0
-290 -330 0
-291 -331 0
-292 -332 0
-293 -333 0
-294 -334 0
-295 -335 0
-296 -336 0
-289 -353 0
-290 -354 0
-291 -355 0
-292 -356 0
-293 -357 0
-294 -358 0
-295 -359 0
-296 -360 0
-289 -361 0
-290 -362 0
-291 -363 0
-292 -364 0
-293 -365 0
-294 -366 0
-295 -367 0
-296 -368 0
-297 -369 0
-298 -370 0
-299 -371 0
-300 -372 0
-301 -373 0
-302 -374 0
-303 -375 0
-304 -376 0
-305 -345 0
-306 -346 0
-307 -347 0
-308 -348 0
-309 -349 0
-310 -350 0
-311 -351 0
-312 -352 0
-305 -321 0
-306 -322 0
-307 -323 0
-308 -324 0
-309 -325 0
-310 -326 0
-311 -327 0
-312 -328 0
-305 -353 0
-306 -354 0
-307 -355 0
-308 -356 0
-309 -357 0
-310 -358 0
-311 -359 0
-312 -360 0
-305 -369 0
-306 -370 0
-307 -371 0
-308 -372 0
-309 -373 0
-310 -374 0
-311 -375 0
-312 -376 0
-305 -337 0
-306 -338 0
-307 -339 0
-308 -340 0
-309 -341 0
-310 -342 0
-311 -343 0
-312 -344 0
-313 -337 0
-314 -338 0
-315 -339 0
-316 -340 0
-317 -341 0
-318 -342 0
-319 -343 0
-320 -344 0
-313 -361 0
-314 -362 0
-315 -363 0
-316 -364 0
-317 -365 0
-318 -366 0
-319 -367 0
-320 -368 0
-321 -345 0
-322 -346 0
-323 -347 0
-324 -348 0
-325 -349 0
-326 -350 0
-327 -351 0
-328 -352 0
-321 -369 0
-322 -370 0
-323 -371 0
-324 -372 0
-325 -373 0
-326 -374 0
-327 -375 0
-328 -376 0
-329 -353 0
-330 -354 0
-331 -355 0
-332 -356 0
-333 -357 0
-334 -358 0
-335 -359 0
-336 -360 0
-329 -361 0
-330 -362 0
-331 -363 0
-332 -364 0
-333 -365 0
-334 -366 0
-335 -367 0
-336 -368 0
-337 -353 0
-338 -354 0
-339 -355 0
-340 -356 0
-341 -357 0
-342 -358 0
-343 -359 0
-344 -360 0
-337 -369 0
-338 -370 0
-339 -371 0
-340 -372 0
-341 -373 0
-342 -374 0
-343 -375 0
-344 -376 0
-345 -353 0
-346 -354 0
-347 -355 0
-348 -356 0
-349 -357 0
-350 -358 0
-351 -359 0
-352 -360 0
-353 -361 0
-354 -362 0
-355 -363 0
-356 -364 0
-357 -365 0
-358 -366 0
-359 -367 0
-360 -368 0
1 2 3 4 5 6 7 8 0
9 10 11 12 13 14 15 16 0
17 18 19 20 21 22 23 24 0
25 26 27 28 29 30 31 32 0
33 34 35 36 37 38 39 40 0
41 42 43 44 45 46 47 48 0
49 50 51 52 53 54 55 56 0
57 58 59 60 61 62 63 64 0
65 66 67 68 69 70 71 72 0
73 74 75 76 77 78 79 80 0
81 82 83 84 85 86 87 88 0
89 90 91 92 93 94 95 96 0
97 98 99 100 101 102 103 104 0
105 106 107 108 109 110 111 112 0
113 114 115 116 117 118 119 120 0
121 122 123 124 125 126 127 128 0
129 130 131 132 133 134 135 136 0
137 138 139 140 141 142 143 144 0
145 146 147 148 149 150 151 152 0
153 154 155 156 157 158 159 160 0
161 162 163 164 165 166 167 168 0
169 170 171 172 173 174 175 176 0
177 178 179 180 181 182 183 184 0
185 186 187 188 189 190 191 192 0
193 194 195 196 197 198 199 200 0
201 202 203 204 205 206 207 208 0
209 210 211 212 213 214 215 216 0
217 218 219 220 221 222 223 224 0
225 226 227 228 229 230 231 232 0
233 234 235 236 237 238 239 240 0
241 242 243 244 245 246 247 248 0
249 250 251 252 253 254 255 256 0
257 258 259 260 261 262 263 264 0
265 266 267 268 269 270 271 272 0
273 274 275 276 277 278 279 280 0
281 282 283 284 285 286 287 288 0
289 290 291 292 293 294 295 296 0
297 298 299 300 301 302 303 304 0
305 306 307 308 309 310 311 312 0
313 314 315 316 317 318 319 320 0
321 322 323 324 325 326 327 328 0
329 330 331 332 333 334 335 336 0
337 338 339 340 341 342 343 344 0
345 346 347 348 349 350 351 352 0
353 354 355 356 357 358 359 360 0
361 362 363 364 365 366 367 368 0
369 370 371 372 373 374 375 376 0
